Route #1: 149 140 63 85 89 2 26 90 163 152
Route #2: 10 43 111 54 121 12 108 165 67 114
Route #3: 45 170 155 31 115 138 179 24 17
Route #4: 47 157 122 27 29 95 51 52
Route #5: 49 137 107 20 14 36 158 79 30 9 128 60
Route #6: 19 68 109 161 93 3 102 78 88 130
Route #7: 73 176 98 21 58 80 96 171 159 18 76 70 8 124 144 104
Route #8: 123 174 126 6 41 22 139 101 148
Route #9: 142 143 11 42 84 116 92 131 169 61 65 32 44 132
Route #10: 99 56 173 28 119 100 69 94 146 50 16 1 172 160 120 112
Route #11: 71 135 5 105 64 86 62 23 55
Route #12: 57 110 162 25 66 81 141 133 180
Route #13: 175 117 35 53 33 151 7 91 168
Route #14: 145 13 77 136 129 38 154 106 59
Route #15: 178 156 177 40 150 97 34 118 113 75
Route #16: 134 83 103 166 74 46 82 153 72 48
Route #17: 127 15 164 37 147 87 167 125 39 4
Cost 20123.000000